p cnf 14 44
c p weight 10 0 0
c p weight -10 1 0
c p weight 11 1.0 0
c p weight -11 1 0
6 -5 1 0
6 -5 2 0
-6 5 1 0
-6 5 2 0
6 5 -1 -2 0
-6 -5 -1 -2 0
7 1 -2 0
7 -1 2 0
-7 1 2 0
-7 -1 -2 0
8 9 -6 0
8 -6 7 0
-8 9 6 0
-8 6 7 0
8 -6 -1 0
-8 6 -1 0
8 -9 6 1 -7 0
-8 -9 -6 1 -7 0
9 -1 7 0
-9 1 7 0
-10 7 0
9 -10 -1 0
-9 -10 1 0
9 10 1 -7 0
-9 10 -1 -7 0
-11 7 0
9 -11 1 0
-9 -11 -1 0
9 11 -1 -7 0
-9 11 1 -7 0
12 -8 9 0
12 -8 7 0
-12 8 9 0
-12 8 7 0
12 8 -9 -7 0
-12 -8 -9 -7 0
13 9 -7 0
13 -9 7 0
-13 9 7 0
-13 -9 -7 0
14 12 -4 0
14 -12 4 0
-14 12 4 0
-14 -12 -4 0
